language Essence 1.3
letting nnodes be 70
letting nrings be 52
letting capacity be 39
letting demand be 
{{1, 3},
{1, 6},
{1, 8},
{1, 9},
{1, 10},
{1, 12},
{1, 13},
{1, 14},
{1, 16},
{1, 18},
{1, 19},
{1, 20},
{1, 23},
{1, 25},
{1, 27},
{1, 28},
{1, 29},
{1, 30},
{1, 31},
{1, 38},
{1, 39},
{1, 41},
{1, 42},
{1, 43},
{1, 44},
{1, 45},
{1, 46},
{1, 47},
{1, 51},
{1, 52},
{1, 57},
{1, 59},
{1, 60},
{1, 67},
{1, 69},
{1, 70},
{2, 4},
{2, 5},
{2, 6},
{2, 9},
{2, 12},
{2, 14},
{2, 16},
{2, 20},
{2, 21},
{2, 22},
{2, 29},
{2, 30},
{2, 32},
{2, 33},
{2, 34},
{2, 40},
{2, 41},
{2, 42},
{2, 43},
{2, 44},
{2, 46},
{2, 47},
{2, 49},
{2, 53},
{2, 54},
{2, 56},
{2, 57},
{2, 61},
{2, 67},
{2, 70},
{3, 4},
{3, 7},
{3, 9},
{3, 12},
{3, 17},
{3, 19},
{3, 20},
{3, 25},
{3, 27},
{3, 28},
{3, 30},
{3, 32},
{3, 33},
{3, 34},
{3, 35},
{3, 39},
{3, 42},
{3, 43},
{3, 49},
{3, 50},
{3, 52},
{3, 53},
{3, 56},
{3, 57},
{3, 58},
{3, 59},
{3, 62},
{3, 63},
{3, 65},
{3, 66},
{3, 67},
{3, 68},
{4, 5},
{4, 6},
{4, 8},
{4, 11},
{4, 13},
{4, 14},
{4, 15},
{4, 16},
{4, 17},
{4, 18},
{4, 20},
{4, 22},
{4, 24},
{4, 25},
{4, 26},
{4, 27},
{4, 28},
{4, 33},
{4, 34},
{4, 35},
{4, 36},
{4, 37},
{4, 39},
{4, 40},
{4, 41},
{4, 42},
{4, 43},
{4, 44},
{4, 48},
{4, 54},
{4, 57},
{4, 59},
{4, 61},
{4, 63},
{4, 64},
{5, 9},
{5, 13},
{5, 17},
{5, 18},
{5, 19},
{5, 20},
{5, 28},
{5, 29},
{5, 30},
{5, 31},
{5, 32},
{5, 34},
{5, 36},
{5, 37},
{5, 40},
{5, 41},
{5, 46},
{5, 48},
{5, 50},
{5, 51},
{5, 60},
{5, 63},
{5, 68},
{5, 70},
{6, 7},
{6, 8},
{6, 10},
{6, 11},
{6, 14},
{6, 15},
{6, 20},
{6, 22},
{6, 23},
{6, 25},
{6, 28},
{6, 31},
{6, 32},
{6, 36},
{6, 38},
{6, 39},
{6, 40},
{6, 42},
{6, 48},
{6, 50},
{6, 58},
{6, 59},
{6, 62},
{6, 63},
{6, 65},
{6, 67},
{6, 68},
{6, 69},
{7, 8},
{7, 12},
{7, 14},
{7, 17},
{7, 19},
{7, 20},
{7, 22},
{7, 23},
{7, 24},
{7, 25},
{7, 27},
{7, 31},
{7, 33},
{7, 36},
{7, 38},
{7, 39},
{7, 41},
{7, 42},
{7, 43},
{7, 45},
{7, 47},
{7, 48},
{7, 51},
{7, 52},
{7, 54},
{7, 60},
{7, 61},
{7, 62},
{7, 63},
{7, 64},
{7, 65},
{7, 66},
{7, 67},
{7, 69},
{7, 70},
{8, 9},
{8, 11},
{8, 13},
{8, 17},
{8, 22},
{8, 23},
{8, 24},
{8, 26},
{8, 28},
{8, 31},
{8, 32},
{8, 35},
{8, 37},
{8, 39},
{8, 46},
{8, 49},
{8, 51},
{8, 52},
{8, 53},
{8, 54},
{8, 55},
{8, 57},
{8, 59},
{8, 64},
{8, 66},
{8, 69},
{8, 70},
{9, 10},
{9, 13},
{9, 17},
{9, 18},
{9, 20},
{9, 21},
{9, 22},
{9, 23},
{9, 25},
{9, 26},
{9, 28},
{9, 29},
{9, 31},
{9, 34},
{9, 36},
{9, 39},
{9, 41},
{9, 43},
{9, 44},
{9, 45},
{9, 47},
{9, 49},
{9, 50},
{9, 51},
{9, 54},
{9, 55},
{9, 56},
{9, 57},
{9, 58},
{9, 61},
{9, 63},
{9, 66},
{9, 67},
{10, 12},
{10, 14},
{10, 20},
{10, 21},
{10, 26},
{10, 27},
{10, 28},
{10, 29},
{10, 32},
{10, 35},
{10, 36},
{10, 37},
{10, 38},
{10, 39},
{10, 41},
{10, 43},
{10, 44},
{10, 45},
{10, 46},
{10, 47},
{10, 48},
{10, 49},
{10, 50},
{10, 52},
{10, 53},
{10, 54},
{10, 55},
{10, 58},
{10, 60},
{10, 62},
{10, 64},
{10, 65},
{10, 66},
{10, 69},
{11, 12},
{11, 13},
{11, 15},
{11, 18},
{11, 19},
{11, 21},
{11, 24},
{11, 25},
{11, 31},
{11, 32},
{11, 33},
{11, 35},
{11, 36},
{11, 42},
{11, 43},
{11, 48},
{11, 50},
{11, 51},
{11, 52},
{11, 55},
{11, 57},
{11, 58},
{11, 60},
{11, 61},
{11, 62},
{11, 63},
{11, 64},
{11, 66},
{11, 69},
{12, 15},
{12, 16},
{12, 22},
{12, 23},
{12, 24},
{12, 27},
{12, 28},
{12, 32},
{12, 33},
{12, 37},
{12, 39},
{12, 41},
{12, 44},
{12, 45},
{12, 48},
{12, 50},
{12, 53},
{12, 54},
{12, 55},
{12, 56},
{12, 57},
{12, 58},
{12, 61},
{12, 63},
{12, 64},
{12, 67},
{12, 69},
{12, 70},
{13, 14},
{13, 17},
{13, 18},
{13, 19},
{13, 20},
{13, 21},
{13, 22},
{13, 24},
{13, 27},
{13, 29},
{13, 30},
{13, 31},
{13, 36},
{13, 43},
{13, 44},
{13, 45},
{13, 58},
{13, 62},
{13, 63},
{13, 64},
{13, 67},
{13, 68},
{13, 70},
{14, 17},
{14, 19},
{14, 21},
{14, 24},
{14, 25},
{14, 28},
{14, 29},
{14, 31},
{14, 33},
{14, 34},
{14, 36},
{14, 39},
{14, 41},
{14, 42},
{14, 43},
{14, 44},
{14, 46},
{14, 47},
{14, 49},
{14, 50},
{14, 53},
{14, 55},
{14, 56},
{14, 57},
{14, 60},
{14, 61},
{14, 64},
{14, 66},
{14, 67},
{14, 68},
{14, 69},
{15, 19},
{15, 22},
{15, 23},
{15, 24},
{15, 25},
{15, 31},
{15, 38},
{15, 39},
{15, 40},
{15, 42},
{15, 48},
{15, 49},
{15, 50},
{15, 55},
{15, 56},
{15, 58},
{15, 59},
{15, 60},
{15, 61},
{15, 62},
{15, 63},
{15, 64},
{15, 66},
{15, 68},
{16, 18},
{16, 20},
{16, 21},
{16, 22},
{16, 24},
{16, 25},
{16, 27},
{16, 29},
{16, 30},
{16, 32},
{16, 34},
{16, 40},
{16, 47},
{16, 49},
{16, 54},
{16, 60},
{16, 61},
{16, 63},
{16, 68},
{16, 70},
{17, 18},
{17, 19},
{17, 21},
{17, 31},
{17, 32},
{17, 33},
{17, 37},
{17, 41},
{17, 47},
{17, 48},
{17, 49},
{17, 50},
{17, 52},
{17, 54},
{17, 55},
{17, 57},
{17, 59},
{17, 60},
{17, 62},
{17, 68},
{18, 21},
{18, 23},
{18, 24},
{18, 25},
{18, 26},
{18, 29},
{18, 33},
{18, 34},
{18, 38},
{18, 39},
{18, 41},
{18, 42},
{18, 44},
{18, 45},
{18, 48},
{18, 52},
{18, 53},
{18, 54},
{18, 55},
{18, 56},
{18, 57},
{18, 58},
{18, 62},
{18, 64},
{18, 67},
{18, 69},
{18, 70},
{19, 21},
{19, 23},
{19, 27},
{19, 28},
{19, 29},
{19, 30},
{19, 31},
{19, 32},
{19, 35},
{19, 36},
{19, 40},
{19, 41},
{19, 48},
{19, 50},
{19, 52},
{19, 56},
{19, 58},
{19, 59},
{19, 60},
{19, 61},
{19, 63},
{19, 64},
{19, 67},
{20, 23},
{20, 24},
{20, 25},
{20, 26},
{20, 27},
{20, 30},
{20, 33},
{20, 42},
{20, 43},
{20, 44},
{20, 48},
{20, 49},
{20, 51},
{20, 55},
{20, 56},
{20, 57},
{20, 60},
{20, 64},
{20, 66},
{20, 67},
{20, 70},
{21, 22},
{21, 25},
{21, 29},
{21, 30},
{21, 31},
{21, 33},
{21, 37},
{21, 38},
{21, 42},
{21, 48},
{21, 54},
{21, 55},
{21, 58},
{21, 59},
{21, 64},
{21, 69},
{22, 24},
{22, 25},
{22, 27},
{22, 31},
{22, 32},
{22, 34},
{22, 36},
{22, 37},
{22, 38},
{22, 39},
{22, 40},
{22, 41},
{22, 44},
{22, 45},
{22, 47},
{22, 49},
{22, 51},
{22, 53},
{22, 54},
{22, 55},
{22, 58},
{22, 59},
{22, 60},
{22, 66},
{22, 68},
{22, 69},
{23, 25},
{23, 27},
{23, 28},
{23, 34},
{23, 40},
{23, 43},
{23, 44},
{23, 45},
{23, 46},
{23, 47},
{23, 53},
{23, 54},
{23, 55},
{23, 57},
{23, 59},
{23, 61},
{23, 64},
{23, 66},
{24, 26},
{24, 27},
{24, 28},
{24, 33},
{24, 37},
{24, 39},
{24, 40},
{24, 45},
{24, 47},
{24, 48},
{24, 56},
{24, 58},
{24, 59},
{24, 60},
{24, 63},
{24, 66},
{24, 67},
{24, 68},
{24, 69},
{25, 26},
{25, 27},
{25, 29},
{25, 32},
{25, 34},
{25, 35},
{25, 36},
{25, 37},
{25, 38},
{25, 43},
{25, 44},
{25, 47},
{25, 50},
{25, 51},
{25, 52},
{25, 54},
{25, 55},
{25, 56},
{25, 57},
{25, 61},
{25, 64},
{25, 66},
{25, 68},
{25, 70},
{26, 31},
{26, 32},
{26, 34},
{26, 37},
{26, 38},
{26, 39},
{26, 40},
{26, 41},
{26, 43},
{26, 44},
{26, 48},
{26, 50},
{26, 51},
{26, 52},
{26, 54},
{26, 55},
{26, 62},
{26, 65},
{26, 67},
{26, 68},
{26, 69},
{27, 28},
{27, 31},
{27, 34},
{27, 36},
{27, 38},
{27, 39},
{27, 40},
{27, 42},
{27, 45},
{27, 49},
{27, 52},
{27, 54},
{27, 56},
{27, 59},
{27, 66},
{27, 68},
{28, 34},
{28, 35},
{28, 38},
{28, 39},
{28, 43},
{28, 44},
{28, 46},
{28, 48},
{28, 50},
{28, 53},
{28, 54},
{28, 57},
{28, 60},
{28, 62},
{28, 65},
{28, 66},
{28, 69},
{28, 70},
{29, 31},
{29, 33},
{29, 35},
{29, 37},
{29, 38},
{29, 41},
{29, 42},
{29, 46},
{29, 47},
{29, 48},
{29, 49},
{29, 51},
{29, 52},
{29, 54},
{29, 55},
{29, 56},
{29, 57},
{29, 60},
{29, 61},
{29, 62},
{29, 65},
{29, 67},
{29, 68},
{29, 69},
{30, 31},
{30, 32},
{30, 33},
{30, 34},
{30, 37},
{30, 38},
{30, 39},
{30, 40},
{30, 46},
{30, 48},
{30, 50},
{30, 51},
{30, 55},
{30, 59},
{30, 62},
{30, 63},
{30, 65},
{31, 32},
{31, 35},
{31, 41},
{31, 45},
{31, 47},
{31, 51},
{31, 52},
{31, 53},
{31, 55},
{31, 62},
{31, 64},
{31, 65},
{31, 66},
{31, 67},
{31, 69},
{32, 33},
{32, 35},
{32, 37},
{32, 39},
{32, 41},
{32, 45},
{32, 46},
{32, 47},
{32, 48},
{32, 50},
{32, 51},
{32, 55},
{32, 58},
{32, 59},
{32, 65},
{32, 66},
{32, 67},
{32, 68},
{32, 69},
{32, 70},
{33, 34},
{33, 36},
{33, 40},
{33, 41},
{33, 45},
{33, 48},
{33, 53},
{33, 55},
{33, 59},
{33, 60},
{33, 62},
{33, 63},
{33, 66},
{33, 69},
{34, 35},
{34, 36},
{34, 41},
{34, 42},
{34, 46},
{34, 47},
{34, 56},
{34, 57},
{34, 58},
{34, 60},
{34, 62},
{34, 64},
{34, 65},
{34, 66},
{34, 70},
{35, 36},
{35, 37},
{35, 39},
{35, 40},
{35, 44},
{35, 50},
{35, 51},
{35, 56},
{35, 58},
{35, 61},
{35, 62},
{35, 63},
{35, 64},
{35, 66},
{35, 67},
{35, 68},
{35, 69},
{35, 70},
{36, 39},
{36, 41},
{36, 43},
{36, 46},
{36, 48},
{36, 50},
{36, 51},
{36, 54},
{36, 55},
{36, 58},
{36, 59},
{36, 60},
{36, 65},
{36, 70},
{37, 38},
{37, 39},
{37, 40},
{37, 44},
{37, 46},
{37, 47},
{37, 49},
{37, 50},
{37, 51},
{37, 53},
{37, 55},
{37, 56},
{37, 57},
{37, 58},
{37, 60},
{37, 62},
{37, 64},
{37, 66},
{37, 70},
{38, 41},
{38, 43},
{38, 46},
{38, 47},
{38, 54},
{38, 55},
{38, 57},
{38, 59},
{38, 61},
{38, 65},
{38, 70},
{39, 40},
{39, 42},
{39, 43},
{39, 45},
{39, 46},
{39, 48},
{39, 51},
{39, 52},
{39, 54},
{39, 56},
{39, 59},
{39, 62},
{39, 63},
{39, 67},
{39, 68},
{39, 69},
{39, 70},
{40, 42},
{40, 43},
{40, 46},
{40, 47},
{40, 48},
{40, 49},
{40, 52},
{40, 54},
{40, 55},
{40, 57},
{40, 58},
{40, 59},
{40, 60},
{40, 62},
{40, 63},
{40, 64},
{40, 68},
{41, 43},
{41, 44},
{41, 47},
{41, 51},
{41, 52},
{41, 53},
{41, 56},
{41, 57},
{41, 62},
{41, 63},
{41, 64},
{41, 65},
{41, 70},
{42, 43},
{42, 45},
{42, 48},
{42, 50},
{42, 53},
{42, 54},
{42, 56},
{42, 57},
{42, 61},
{42, 62},
{42, 63},
{42, 64},
{42, 65},
{42, 66},
{42, 67},
{42, 68},
{43, 46},
{43, 51},
{43, 54},
{43, 57},
{43, 60},
{43, 61},
{43, 67},
{43, 68},
{43, 69},
{44, 54},
{44, 56},
{44, 59},
{44, 62},
{44, 63},
{44, 67},
{44, 68},
{44, 69},
{45, 46},
{45, 49},
{45, 53},
{45, 54},
{45, 55},
{45, 56},
{45, 57},
{45, 59},
{45, 62},
{45, 65},
{45, 67},
{45, 69},
{45, 70},
{46, 47},
{46, 49},
{46, 50},
{46, 51},
{46, 53},
{46, 54},
{46, 55},
{46, 57},
{46, 60},
{46, 63},
{46, 67},
{46, 70},
{47, 48},
{47, 50},
{47, 52},
{47, 53},
{47, 56},
{47, 58},
{47, 59},
{47, 60},
{47, 62},
{47, 66},
{47, 67},
{47, 68},
{47, 69},
{47, 70},
{48, 49},
{48, 50},
{48, 51},
{48, 53},
{48, 55},
{48, 57},
{48, 61},
{48, 65},
{49, 50},
{49, 52},
{49, 53},
{49, 55},
{49, 58},
{49, 61},
{49, 62},
{49, 65},
{49, 66},
{49, 67},
{49, 68},
{50, 52},
{50, 53},
{50, 54},
{50, 57},
{50, 59},
{50, 60},
{50, 61},
{50, 62},
{50, 65},
{50, 67},
{50, 68},
{50, 69},
{51, 53},
{51, 54},
{51, 55},
{51, 59},
{51, 61},
{51, 62},
{51, 65},
{51, 66},
{51, 67},
{51, 68},
{52, 53},
{52, 54},
{52, 56},
{52, 57},
{52, 59},
{52, 60},
{52, 63},
{52, 67},
{52, 68},
{53, 54},
{53, 55},
{53, 57},
{53, 58},
{53, 61},
{53, 62},
{53, 63},
{53, 64},
{53, 66},
{53, 67},
{53, 69},
{54, 55},
{54, 56},
{54, 57},
{54, 58},
{54, 59},
{54, 62},
{54, 70},
{55, 56},
{55, 59},
{55, 60},
{55, 62},
{55, 63},
{55, 65},
{55, 66},
{55, 67},
{55, 69},
{55, 70},
{56, 57},
{56, 59},
{56, 65},
{56, 68},
{56, 70},
{57, 58},
{57, 60},
{57, 62},
{57, 64},
{57, 68},
{58, 59},
{58, 62},
{58, 63},
{58, 66},
{58, 70},
{59, 60},
{59, 61},
{59, 62},
{59, 63},
{59, 65},
{59, 66},
{60, 62},
{60, 64},
{60, 65},
{60, 66},
{60, 67},
{60, 68},
{60, 69},
{61, 64},
{61, 70},
{62, 63},
{62, 66},
{62, 68},
{63, 64},
{63, 70},
{64, 67},
{65, 67},
{66, 67},
{67, 69},
{67, 70},
{68, 69}}
